# units=lj,lattice=fcc,lattice_constant=0.9542773458554505,lattice_nx=6,lattice_ny=23,lattice_nz=23,ntypes=1,type=1,mass=1.0,temperature_target=1.0,temperature_seed=12345,force_type=lj/cut,force_cutoff=2.281363632034258,neighbor_skin=0.17012266103181173,comm_exchange_rate=20,dt=0.0002649569763292635,thermo_rate=66,nsteps=1469,nodes=8,tasks=4,testNum=319,

units lj
atom_style atomic
lattice fcc 0.9542773458554505
region box block 0 6 0 23 0 23
create_box 1 box
create_atoms 1 box
mass 1 1.0
velocity all create 1.0 12345
pair_style lj/cut 2.281363632034258
pair_coeff 1 1 1.0 1.0
neighbor 0.17012266103181173 bin
neigh_modify delay 0 every 20 check no
fix 1 all nve
timestep 0.0002649569763292635
thermo 66
run 1469
