# units=lj,lattice=fcc,lattice_constant=0.9554812118070731,lattice_nx=13,lattice_ny=3,lattice_nz=23,ntypes=1,type=1,mass=1.0,temperature_target=1.0,temperature_seed=12345,force_type=lj/cut,force_cutoff=2.0958823252743484,neighbor_skin=0.12747465877244213,comm_exchange_rate=20,dt=0.0004847123236288709,thermo_rate=23,nsteps=7999,nodes=2,tasks=8,testNum=35,

units lj
atom_style atomic
lattice fcc 0.9554812118070731
region box block 0 13 0 3 0 23
create_box 1 box
create_atoms 1 box
mass 1 1.0
velocity all create 1.0 12345
pair_style lj/cut 2.0958823252743484
pair_coeff 1 1 1.0 1.0
neighbor 0.12747465877244213 bin
neigh_modify delay 0 every 20 check no
fix 1 all nve
timestep 0.0004847123236288709
thermo 23
run 7999
