# units=lj,lattice=fcc,lattice_constant=0.9036613974090157,lattice_nx=2,lattice_ny=19,lattice_nz=25,ntypes=1,type=1,mass=1.0,temperature_target=1.0,temperature_seed=12345,force_type=lj/cut,force_cutoff=2.4015360375012573,neighbor_skin=0.24272199881559464,comm_exchange_rate=20,dt=0.0006148699386661813,thermo_rate=62,nsteps=5334,nodes=1,tasks=2,testNum=80,

units lj
atom_style atomic
lattice fcc 0.9036613974090157
region box block 0 2 0 19 0 25
create_box 1 box
create_atoms 1 box
mass 1 1.0
velocity all create 1.0 12345
pair_style lj/cut 2.4015360375012573
pair_coeff 1 1 1.0 1.0
neighbor 0.24272199881559464 bin
neigh_modify delay 0 every 20 check no
fix 1 all nve
timestep 0.0006148699386661813
thermo 62
run 5334
