# units=lj,lattice=fcc,lattice_constant=0.6017415141666801,lattice_nx=25,lattice_ny=7,lattice_nz=11,ntypes=1,type=1,mass=1.0,temperature_target=1.0,temperature_seed=12345,force_type=lj/cut,force_cutoff=2.8652967602727952,neighbor_skin=0.49105292008574997,comm_exchange_rate=20,dt=0.0006070268608015803,thermo_rate=31,nsteps=2945,nodes=32,tasks=16,testNum=150,

units lj
atom_style atomic
lattice fcc 0.6017415141666801
region box block 0 25 0 7 0 11
create_box 1 box
create_atoms 1 box
mass 1 1.0
velocity all create 1.0 12345
pair_style lj/cut 2.8652967602727952
pair_coeff 1 1 1.0 1.0
neighbor 0.49105292008574997 bin
neigh_modify delay 0 every 20 check no
fix 1 all nve
timestep 0.0006070268608015803
thermo 31
run 2945
