# units=lj,lattice=fcc,lattice_constant=0.6494747844214076,lattice_nx=26,lattice_ny=8,lattice_nz=14,ntypes=1,type=1,mass=1.0,temperature_target=1.0,temperature_seed=12345,force_type=lj/cut,force_cutoff=2.565944333796951,neighbor_skin=0.11000342110618436,comm_exchange_rate=20,dt=0.0009217882077994625,thermo_rate=29,nsteps=8955,nodes=32,tasks=2,testNum=196,

units lj
atom_style atomic
lattice fcc 0.6494747844214076
region box block 0 26 0 8 0 14
create_box 1 box
create_atoms 1 box
mass 1 1.0
velocity all create 1.0 12345
pair_style lj/cut 2.565944333796951
pair_coeff 1 1 1.0 1.0
neighbor 0.11000342110618436 bin
neigh_modify delay 0 every 20 check no
fix 1 all nve
timestep 0.0009217882077994625
thermo 29
run 8955
