# units=lj,lattice=fcc,lattice_constant=0.7804908042187797,lattice_nx=11,lattice_ny=14,lattice_nz=9,ntypes=1,type=1,mass=1.0,temperature_target=1.0,temperature_seed=12345,force_type=lj/cut,force_cutoff=2.822799298906191,neighbor_skin=0.2517034805256409,comm_exchange_rate=20,dt=0.0001810027262343886,thermo_rate=37,nsteps=6802,nodes=64,tasks=8,testNum=186,

units lj
atom_style atomic
lattice fcc 0.7804908042187797
region box block 0 11 0 14 0 9
create_box 1 box
create_atoms 1 box
mass 1 1.0
velocity all create 1.0 12345
pair_style lj/cut 2.822799298906191
pair_coeff 1 1 1.0 1.0
neighbor 0.2517034805256409 bin
neigh_modify delay 0 every 20 check no
fix 1 all nve
timestep 0.0001810027262343886
thermo 37
run 6802
