# units=lj,lattice=fcc,lattice_constant=0.8442,lattice_offset_x=0.0,lattice_offset_y=0.0,lattice_offset_z=0.0,lattice_nx=26,lattice_ny=7,lattice_nz=6,ntypes=1,type=1,mass=2.0,force_type=lj/cut,force_cutoff=2.5,temperature_target=1.4,temperature_seed=87287,neighbor_skin=0.3,comm_exchange_rate=20,thermo_rate=10,dt=1.948470220120862,comm_newton=off,nsteps=341,nodes=2,tasks=16,testNum=0,

units lj
atom_style atomic
lattice fcc 0.8442
region box block 0 26 0 7 0 6
create_box 1
create_atoms
mass 1 2.0
pair_style lj/cut 2.5
velocity all create 1.4 87287
neighbor 0.3
neigh_modify every 20
fix 1 all nve
thermo 10
timestep 1.948470220120862
newton off
run 341
