# units=lj,lattice=fcc,lattice_constant=0.7479446567427521,lattice_nx=1,lattice_ny=8,lattice_nz=23,ntypes=1,type=1,mass=1.0,temperature_target=1.0,temperature_seed=12345,force_type=lj/cut,force_cutoff=2.9131988703301652,neighbor_skin=0.22059678593405338,comm_exchange_rate=20,dt=0.0003968135202277335,thermo_rate=60,nsteps=8535,nodes=8,tasks=16,testNum=78,

units lj
atom_style atomic
lattice fcc 0.7479446567427521
region box block 0 1 0 8 0 23
create_box 1 box
create_atoms 1 box
mass 1 1.0
velocity all create 1.0 12345
pair_style lj/cut 2.9131988703301652
pair_coeff 1 1 1.0 1.0
neighbor 0.22059678593405338 bin
neigh_modify delay 0 every 20 check no
fix 1 all nve
timestep 0.0003968135202277335
thermo 60
run 8535
