# units=metal,lattice=sc,lattice_constant=3.316,lattice_offset_x=0.0,lattice_offset_y=0.0,lattice_offset_z=0.0,lattice_nx=6,lattice_ny=20,lattice_nz=18,ntypes=1,type=1,mass=180.88,force_type=snap,force_cutoff=None,temperature_target=300.0,temperature_seed=4928459,neighbor_skin=1.0,comm_exchange_rate=1,thermo_rate=5,dt=0.00012802003005805157,comm_newton=on,nsteps=8653,nodes=2,tasks=16,testNum=11187,

units metal
atom_style atomic
lattice sc 3.316
region box block 0 6 0 20 0 18
create_box 1
create_atoms
mass 1 180.88
pair_style snap
pair_coeff * * Ta06A.snapcoeff Ta Ta06A.snapparam Ta
velocity all create 300.0 4928459
neighbor 1.0
neigh_modify every 1
fix 1 all nve
thermo 5
timestep 0.00012802003005805157
newton on
run 8653
