# units=lj,lattice=fcc,lattice_constant=0.5764008745411254,lattice_nx=21,lattice_ny=23,lattice_nz=12,ntypes=1,type=1,mass=1.0,temperature_target=1.0,temperature_seed=12345,force_type=lj/cut,force_cutoff=2.742125296653181,neighbor_skin=0.2274634394749649,comm_exchange_rate=20,dt=0.0005395229231371961,thermo_rate=92,nsteps=5905,nodes=8,tasks=4,testNum=42,

units lj
atom_style atomic
lattice fcc 0.5764008745411254
region box block 0 21 0 23 0 12
create_box 1 box
create_atoms 1 box
mass 1 1.0
velocity all create 1.0 12345
pair_style lj/cut 2.742125296653181
pair_coeff 1 1 1.0 1.0
neighbor 0.2274634394749649 bin
neigh_modify delay 0 every 20 check no
fix 1 all nve
timestep 0.0005395229231371961
thermo 92
run 5905
