# units=lj,lattice=fcc,lattice_constant=0.8243703711956674,lattice_nx=18,lattice_ny=12,lattice_nz=22,ntypes=1,type=1,mass=1.0,temperature_target=1.0,temperature_seed=12345,force_type=lj/cut,force_cutoff=2.465908774477407,neighbor_skin=0.40036449435733057,comm_exchange_rate=20,dt=0.0006145193618817528,thermo_rate=45,nsteps=6052,nodes=1,tasks=16,testNum=27,

units lj
atom_style atomic
lattice fcc 0.8243703711956674
region box block 0 18 0 12 0 22
create_box 1 box
create_atoms 1 box
mass 1 1.0
velocity all create 1.0 12345
pair_style lj/cut 2.465908774477407
pair_coeff 1 1 1.0 1.0
neighbor 0.40036449435733057 bin
neigh_modify delay 0 every 20 check no
fix 1 all nve
timestep 0.0006145193618817528
thermo 45
run 6052
