# units=lj,lattice=fcc,lattice_constant=0.6357155348329762,lattice_nx=15,lattice_ny=22,lattice_nz=10,ntypes=1,type=1,mass=1.0,temperature_target=1.0,temperature_seed=12345,force_type=lj/cut,force_cutoff=2.0231064661427807,neighbor_skin=0.3853751349532911,comm_exchange_rate=20,dt=0.000444373797732973,thermo_rate=97,nsteps=1892,nodes=8,tasks=32,testNum=86,

units lj
atom_style atomic
lattice fcc 0.6357155348329762
region box block 0 15 0 22 0 10
create_box 1 box
create_atoms 1 box
mass 1 1.0
velocity all create 1.0 12345
pair_style lj/cut 2.0231064661427807
pair_coeff 1 1 1.0 1.0
neighbor 0.3853751349532911 bin
neigh_modify delay 0 every 20 check no
fix 1 all nve
timestep 0.000444373797732973
thermo 97
run 1892
