# units=lj,lattice=fcc,lattice_constant=0.9646138307551575,lattice_nx=11,lattice_ny=1,lattice_nz=21,ntypes=1,type=1,mass=1.0,temperature_target=1.0,temperature_seed=12345,force_type=lj/cut,force_cutoff=2.3262866512895495,neighbor_skin=0.21331761441141112,comm_exchange_rate=20,dt=0.00010228206732072336,thermo_rate=29,nsteps=9321,nodes=8,tasks=1,testNum=144,

units lj
atom_style atomic
lattice fcc 0.9646138307551575
region box block 0 11 0 1 0 21
create_box 1 box
create_atoms 1 box
mass 1 1.0
velocity all create 1.0 12345
pair_style lj/cut 2.3262866512895495
pair_coeff 1 1 1.0 1.0
neighbor 0.21331761441141112 bin
neigh_modify delay 0 every 20 check no
fix 1 all nve
timestep 0.00010228206732072336
thermo 29
run 9321
