# units=lj,lattice=fcc,lattice_constant=0.9527844092759096,lattice_nx=14,lattice_ny=11,lattice_nz=11,ntypes=1,type=1,mass=1.0,temperature_target=1.0,temperature_seed=12345,force_type=lj/cut,force_cutoff=2.040090670528249,neighbor_skin=0.37072566839975907,comm_exchange_rate=20,dt=0.0008065042757777242,thermo_rate=37,nsteps=4536,nodes=8,tasks=32,testNum=96,

units lj
atom_style atomic
lattice fcc 0.9527844092759096
region box block 0 14 0 11 0 11
create_box 1 box
create_atoms 1 box
mass 1 1.0
velocity all create 1.0 12345
pair_style lj/cut 2.040090670528249
pair_coeff 1 1 1.0 1.0
neighbor 0.37072566839975907 bin
neigh_modify delay 0 every 20 check no
fix 1 all nve
timestep 0.0008065042757777242
thermo 37
run 4536
