# units=lj,lattice=fcc,lattice_constant=0.9957213753429851,lattice_nx=23,lattice_ny=26,lattice_nz=2,ntypes=1,type=1,mass=1.0,temperature_target=1.0,temperature_seed=12345,force_type=lj/cut,force_cutoff=2.554345674486124,neighbor_skin=0.4551725027206641,comm_exchange_rate=20,dt=0.00016954804457794132,thermo_rate=91,nsteps=6031,nodes=16,tasks=2,testNum=298,

units lj
atom_style atomic
lattice fcc 0.9957213753429851
region box block 0 23 0 26 0 2
create_box 1 box
create_atoms 1 box
mass 1 1.0
velocity all create 1.0 12345
pair_style lj/cut 2.554345674486124
pair_coeff 1 1 1.0 1.0
neighbor 0.4551725027206641 bin
neigh_modify delay 0 every 20 check no
fix 1 all nve
timestep 0.00016954804457794132
thermo 91
run 6031
