# units=lj,lattice=fcc,lattice_constant=0.6668839412723153,lattice_nx=19,lattice_ny=4,lattice_nz=19,ntypes=1,type=1,mass=1.0,temperature_target=1.0,temperature_seed=12345,force_type=lj/cut,force_cutoff=2.1008275686622317,neighbor_skin=0.10443438124908729,comm_exchange_rate=20,dt=0.0009324837363154484,thermo_rate=42,nsteps=4600,nodes=32,tasks=32,testNum=176,

units lj
atom_style atomic
lattice fcc 0.6668839412723153
region box block 0 19 0 4 0 19
create_box 1 box
create_atoms 1 box
mass 1 1.0
velocity all create 1.0 12345
pair_style lj/cut 2.1008275686622317
pair_coeff 1 1 1.0 1.0
neighbor 0.10443438124908729 bin
neigh_modify delay 0 every 20 check no
fix 1 all nve
timestep 0.0009324837363154484
thermo 42
run 4600
