# units=lj,lattice=fcc,lattice_constant=0.9988091674143209,lattice_nx=12,lattice_ny=5,lattice_nz=12,ntypes=1,type=1,mass=1.0,temperature_target=1.0,temperature_seed=12345,force_type=lj/cut,force_cutoff=2.580309100875348,neighbor_skin=0.20447724567094921,comm_exchange_rate=20,dt=0.0003854813085628584,thermo_rate=81,nsteps=8905,nodes=32,tasks=32,testNum=73,

units lj
atom_style atomic
lattice fcc 0.9988091674143209
region box block 0 12 0 5 0 12
create_box 1 box
create_atoms 1 box
mass 1 1.0
velocity all create 1.0 12345
pair_style lj/cut 2.580309100875348
pair_coeff 1 1 1.0 1.0
neighbor 0.20447724567094921 bin
neigh_modify delay 0 every 20 check no
fix 1 all nve
timestep 0.0003854813085628584
thermo 81
run 8905
