# units=lj,lattice=fcc,lattice_constant=0.5578315339405606,lattice_nx=2,lattice_ny=2,lattice_nz=10,ntypes=1,type=1,mass=1.0,temperature_target=1.0,temperature_seed=12345,force_type=lj/cut,force_cutoff=2.4026370096362646,neighbor_skin=0.433976366336675,comm_exchange_rate=20,dt=0.000781741832951166,thermo_rate=13,nsteps=177,nodes=16,tasks=2,testNum=164,

units lj
atom_style atomic
lattice fcc 0.5578315339405606
region box block 0 2 0 2 0 10
create_box 1 box
create_atoms 1 box
mass 1 1.0
velocity all create 1.0 12345
pair_style lj/cut 2.4026370096362646
pair_coeff 1 1 1.0 1.0
neighbor 0.433976366336675 bin
neigh_modify delay 0 every 20 check no
fix 1 all nve
timestep 0.000781741832951166
thermo 13
run 177
