# units=lj,lattice=fcc,lattice_constant=0.7806385799252507,lattice_nx=25,lattice_ny=22,lattice_nz=5,ntypes=1,type=1,mass=1.0,temperature_target=1.0,temperature_seed=12345,force_type=lj/cut,force_cutoff=2.2775866703502357,neighbor_skin=0.24272747935339206,comm_exchange_rate=20,dt=0.0002763898342728371,thermo_rate=90,nsteps=4387,nodes=8,tasks=16,testNum=147,

units lj
atom_style atomic
lattice fcc 0.7806385799252507
region box block 0 25 0 22 0 5
create_box 1 box
create_atoms 1 box
mass 1 1.0
velocity all create 1.0 12345
pair_style lj/cut 2.2775866703502357
pair_coeff 1 1 1.0 1.0
neighbor 0.24272747935339206 bin
neigh_modify delay 0 every 20 check no
fix 1 all nve
timestep 0.0002763898342728371
thermo 90
run 4387
