# units=lj,lattice=fcc,lattice_constant=0.8824516762022844,lattice_nx=26,lattice_ny=6,lattice_nz=11,ntypes=1,type=1,mass=1.0,temperature_target=1.0,temperature_seed=12345,force_type=lj/cut,force_cutoff=2.859922554702664,neighbor_skin=0.49494099844502404,comm_exchange_rate=20,dt=0.0008751179761191394,thermo_rate=54,nsteps=7327,nodes=2,tasks=16,testNum=262,

units lj
atom_style atomic
lattice fcc 0.8824516762022844
region box block 0 26 0 6 0 11
create_box 1 box
create_atoms 1 box
mass 1 1.0
velocity all create 1.0 12345
pair_style lj/cut 2.859922554702664
pair_coeff 1 1 1.0 1.0
neighbor 0.49494099844502404 bin
neigh_modify delay 0 every 20 check no
fix 1 all nve
timestep 0.0008751179761191394
thermo 54
run 7327
