# units=lj,lattice=fcc,lattice_constant=0.9267136381606486,lattice_nx=6,lattice_ny=22,lattice_nz=15,ntypes=1,type=1,mass=1.0,temperature_target=1.0,temperature_seed=12345,force_type=lj/cut,force_cutoff=2.9335099424508115,neighbor_skin=0.47887640827586664,comm_exchange_rate=20,dt=0.0007543668008665646,thermo_rate=55,nsteps=1526,nodes=32,tasks=2,testNum=47,

units lj
atom_style atomic
lattice fcc 0.9267136381606486
region box block 0 6 0 22 0 15
create_box 1 box
create_atoms 1 box
mass 1 1.0
velocity all create 1.0 12345
pair_style lj/cut 2.9335099424508115
pair_coeff 1 1 1.0 1.0
neighbor 0.47887640827586664 bin
neigh_modify delay 0 every 20 check no
fix 1 all nve
timestep 0.0007543668008665646
thermo 55
run 1526
