# units=lj,lattice=fcc,lattice_constant=0.640293143487685,lattice_nx=6,lattice_ny=12,lattice_nz=2,ntypes=1,type=1,mass=1.0,temperature_target=1.0,temperature_seed=12345,force_type=lj/cut,force_cutoff=2.71242770995207,neighbor_skin=0.11611610992314288,comm_exchange_rate=20,dt=0.00017851716143688396,thermo_rate=59,nsteps=4894,nodes=2,tasks=16,testNum=300,

units lj
atom_style atomic
lattice fcc 0.640293143487685
region box block 0 6 0 12 0 2
create_box 1 box
create_atoms 1 box
mass 1 1.0
velocity all create 1.0 12345
pair_style lj/cut 2.71242770995207
pair_coeff 1 1 1.0 1.0
neighbor 0.11611610992314288 bin
neigh_modify delay 0 every 20 check no
fix 1 all nve
timestep 0.00017851716143688396
thermo 59
run 4894
