# units=lj,lattice=fcc,lattice_constant=0.956715827687501,lattice_nx=25,lattice_ny=9,lattice_nz=19,ntypes=1,type=1,mass=1.0,temperature_target=1.0,temperature_seed=12345,force_type=lj/cut,force_cutoff=2.161861043150785,neighbor_skin=0.34473624100533284,comm_exchange_rate=20,dt=0.00019733611739691556,thermo_rate=6,nsteps=7037,nodes=8,tasks=4,testNum=114,

units lj
atom_style atomic
lattice fcc 0.956715827687501
region box block 0 25 0 9 0 19
create_box 1 box
create_atoms 1 box
mass 1 1.0
velocity all create 1.0 12345
pair_style lj/cut 2.161861043150785
pair_coeff 1 1 1.0 1.0
neighbor 0.34473624100533284 bin
neigh_modify delay 0 every 20 check no
fix 1 all nve
timestep 0.00019733611739691556
thermo 6
run 7037
