# units=lj,lattice=fcc,lattice_constant=0.7519971211117679,lattice_nx=9,lattice_ny=12,lattice_nz=19,ntypes=1,type=1,mass=1.0,temperature_target=1.0,temperature_seed=12345,force_type=lj/cut,force_cutoff=2.1356647724837075,neighbor_skin=0.4519863089210624,comm_exchange_rate=20,dt=0.0008202270177716761,thermo_rate=38,nsteps=1164,nodes=16,tasks=1,testNum=103,

units lj
atom_style atomic
lattice fcc 0.7519971211117679
region box block 0 9 0 12 0 19
create_box 1 box
create_atoms 1 box
mass 1 1.0
velocity all create 1.0 12345
pair_style lj/cut 2.1356647724837075
pair_coeff 1 1 1.0 1.0
neighbor 0.4519863089210624 bin
neigh_modify delay 0 every 20 check no
fix 1 all nve
timestep 0.0008202270177716761
thermo 38
run 1164
