# units=lj,lattice=fcc,lattice_constant=0.9479561559358367,lattice_nx=7,lattice_ny=1,lattice_nz=17,ntypes=1,type=1,mass=1.0,temperature_target=1.0,temperature_seed=12345,force_type=lj/cut,force_cutoff=2.9352175160231573,neighbor_skin=0.17312535520677344,comm_exchange_rate=20,dt=0.0004926002062843964,thermo_rate=14,nsteps=8366,nodes=1,tasks=32,testNum=9,

units lj
atom_style atomic
lattice fcc 0.9479561559358367
region box block 0 7 0 1 0 17
create_box 1 box
create_atoms 1 box
mass 1 1.0
velocity all create 1.0 12345
pair_style lj/cut 2.9352175160231573
pair_coeff 1 1 1.0 1.0
neighbor 0.17312535520677344 bin
neigh_modify delay 0 every 20 check no
fix 1 all nve
timestep 0.0004926002062843964
thermo 14
run 8366
