# units=lj,lattice=fcc,lattice_constant=0.7134664191212523,lattice_nx=15,lattice_ny=26,lattice_nz=2,ntypes=1,type=1,mass=1.0,temperature_target=1.0,temperature_seed=12345,force_type=lj/cut,force_cutoff=2.648213370504092,neighbor_skin=0.22982418824392964,comm_exchange_rate=20,dt=0.0005275536955869069,thermo_rate=5,nsteps=3207,nodes=8,tasks=1,testNum=109,

units lj
atom_style atomic
lattice fcc 0.7134664191212523
region box block 0 15 0 26 0 2
create_box 1 box
create_atoms 1 box
mass 1 1.0
velocity all create 1.0 12345
pair_style lj/cut 2.648213370504092
pair_coeff 1 1 1.0 1.0
neighbor 0.22982418824392964 bin
neigh_modify delay 0 every 20 check no
fix 1 all nve
timestep 0.0005275536955869069
thermo 5
run 3207
