# units=lj,lattice=fcc,lattice_constant=0.7047470206837695,lattice_nx=15,lattice_ny=17,lattice_nz=21,ntypes=1,type=1,mass=1.0,temperature_target=1.0,temperature_seed=12345,force_type=lj/cut,force_cutoff=2.4421357326801214,neighbor_skin=0.46608635046321634,comm_exchange_rate=20,dt=0.0005435720350570469,thermo_rate=50,nsteps=699,nodes=1,tasks=8,testNum=306,

units lj
atom_style atomic
lattice fcc 0.7047470206837695
region box block 0 15 0 17 0 21
create_box 1 box
create_atoms 1 box
mass 1 1.0
velocity all create 1.0 12345
pair_style lj/cut 2.4421357326801214
pair_coeff 1 1 1.0 1.0
neighbor 0.46608635046321634 bin
neigh_modify delay 0 every 20 check no
fix 1 all nve
timestep 0.0005435720350570469
thermo 50
run 699
