# units=lj,lattice=fcc,lattice_constant=0.9548905518530499,lattice_nx=5,lattice_ny=7,lattice_nz=7,ntypes=1,type=1,mass=1.0,temperature_target=1.0,temperature_seed=12345,force_type=lj/cut,force_cutoff=2.8948355242921786,neighbor_skin=0.480227701908447,comm_exchange_rate=20,dt=0.0003249206262656957,thermo_rate=48,nsteps=6994,nodes=16,tasks=8,testNum=227,

units lj
atom_style atomic
lattice fcc 0.9548905518530499
region box block 0 5 0 7 0 7
create_box 1 box
create_atoms 1 box
mass 1 1.0
velocity all create 1.0 12345
pair_style lj/cut 2.8948355242921786
pair_coeff 1 1 1.0 1.0
neighbor 0.480227701908447 bin
neigh_modify delay 0 every 20 check no
fix 1 all nve
timestep 0.0003249206262656957
thermo 48
run 6994
