# units=lj,lattice=fcc,lattice_constant=0.9686677765114294,lattice_nx=12,lattice_ny=5,lattice_nz=22,ntypes=1,type=1,mass=1.0,temperature_target=1.0,temperature_seed=12345,force_type=lj/cut,force_cutoff=2.202695575035274,neighbor_skin=0.22240850523286362,comm_exchange_rate=20,dt=0.0009777614562926557,thermo_rate=23,nsteps=5879,nodes=8,tasks=8,testNum=125,

units lj
atom_style atomic
lattice fcc 0.9686677765114294
region box block 0 12 0 5 0 22
create_box 1 box
create_atoms 1 box
mass 1 1.0
velocity all create 1.0 12345
pair_style lj/cut 2.202695575035274
pair_coeff 1 1 1.0 1.0
neighbor 0.22240850523286362 bin
neigh_modify delay 0 every 20 check no
fix 1 all nve
timestep 0.0009777614562926557
thermo 23
run 5879
