# units=lj,lattice=fcc,lattice_constant=0.8156368230926804,lattice_nx=18,lattice_ny=23,lattice_nz=8,ntypes=1,type=1,mass=1.0,temperature_target=1.0,temperature_seed=12345,force_type=lj/cut,force_cutoff=2.961440989772031,neighbor_skin=0.3378959714365145,comm_exchange_rate=20,dt=0.0008504746874622287,thermo_rate=54,nsteps=7161,nodes=32,tasks=1,testNum=133,

units lj
atom_style atomic
lattice fcc 0.8156368230926804
region box block 0 18 0 23 0 8
create_box 1 box
create_atoms 1 box
mass 1 1.0
velocity all create 1.0 12345
pair_style lj/cut 2.961440989772031
pair_coeff 1 1 1.0 1.0
neighbor 0.3378959714365145 bin
neigh_modify delay 0 every 20 check no
fix 1 all nve
timestep 0.0008504746874622287
thermo 54
run 7161
