# units=lj,lattice=fcc,lattice_constant=0.8554855794846243,lattice_nx=13,lattice_ny=22,lattice_nz=12,ntypes=1,type=1,mass=1.0,temperature_target=1.0,temperature_seed=12345,force_type=lj/cut,force_cutoff=2.03787247448688,neighbor_skin=0.14327720181297982,comm_exchange_rate=20,dt=0.0005194590931955608,thermo_rate=55,nsteps=4864,nodes=4,tasks=8,testNum=234,

units lj
atom_style atomic
lattice fcc 0.8554855794846243
region box block 0 13 0 22 0 12
create_box 1 box
create_atoms 1 box
mass 1 1.0
velocity all create 1.0 12345
pair_style lj/cut 2.03787247448688
pair_coeff 1 1 1.0 1.0
neighbor 0.14327720181297982 bin
neigh_modify delay 0 every 20 check no
fix 1 all nve
timestep 0.0005194590931955608
thermo 55
run 4864
