# units=lj,lattice=fcc,lattice_constant=0.9771217462221394,lattice_nx=16,lattice_ny=14,lattice_nz=9,ntypes=1,type=1,mass=1.0,temperature_target=1.0,temperature_seed=12345,force_type=lj/cut,force_cutoff=2.5880768190413614,neighbor_skin=0.2047662286179266,comm_exchange_rate=20,dt=0.0007429138750761424,thermo_rate=93,nsteps=7702,nodes=2,tasks=32,testNum=50,

units lj
atom_style atomic
lattice fcc 0.9771217462221394
region box block 0 16 0 14 0 9
create_box 1 box
create_atoms 1 box
mass 1 1.0
velocity all create 1.0 12345
pair_style lj/cut 2.5880768190413614
pair_coeff 1 1 1.0 1.0
neighbor 0.2047662286179266 bin
neigh_modify delay 0 every 20 check no
fix 1 all nve
timestep 0.0007429138750761424
thermo 93
run 7702
