# units=lj,lattice=fcc,lattice_constant=0.964493977041699,lattice_nx=6,lattice_ny=7,lattice_nz=16,ntypes=1,type=1,mass=1.0,temperature_target=1.0,temperature_seed=12345,force_type=lj/cut,force_cutoff=2.908028265218223,neighbor_skin=0.3661428102771246,comm_exchange_rate=20,dt=0.0004248377421903101,thermo_rate=39,nsteps=8199,nodes=16,tasks=32,testNum=279,

units lj
atom_style atomic
lattice fcc 0.964493977041699
region box block 0 6 0 7 0 16
create_box 1 box
create_atoms 1 box
mass 1 1.0
velocity all create 1.0 12345
pair_style lj/cut 2.908028265218223
pair_coeff 1 1 1.0 1.0
neighbor 0.3661428102771246 bin
neigh_modify delay 0 every 20 check no
fix 1 all nve
timestep 0.0004248377421903101
thermo 39
run 8199
