# units=lj,lattice=fcc,lattice_constant=0.6995468581604906,lattice_nx=5,lattice_ny=20,lattice_nz=26,ntypes=1,type=1,mass=1.0,temperature_target=1.0,temperature_seed=12345,force_type=lj/cut,force_cutoff=2.644332001575366,neighbor_skin=0.12420988035822629,comm_exchange_rate=20,dt=0.0009730369169330899,thermo_rate=34,nsteps=1371,nodes=32,tasks=16,testNum=192,

units lj
atom_style atomic
lattice fcc 0.6995468581604906
region box block 0 5 0 20 0 26
create_box 1 box
create_atoms 1 box
mass 1 1.0
velocity all create 1.0 12345
pair_style lj/cut 2.644332001575366
pair_coeff 1 1 1.0 1.0
neighbor 0.12420988035822629 bin
neigh_modify delay 0 every 20 check no
fix 1 all nve
timestep 0.0009730369169330899
thermo 34
run 1371
