# units=lj,lattice=fcc,lattice_constant=0.7571196289167246,lattice_nx=19,lattice_ny=21,lattice_nz=13,ntypes=1,type=1,mass=1.0,temperature_target=1.0,temperature_seed=12345,force_type=lj/cut,force_cutoff=2.4675969757661234,neighbor_skin=0.32968228814210376,comm_exchange_rate=20,dt=0.0003044384967803023,thermo_rate=73,nsteps=9905,nodes=1,tasks=2,testNum=251,

units lj
atom_style atomic
lattice fcc 0.7571196289167246
region box block 0 19 0 21 0 13
create_box 1 box
create_atoms 1 box
mass 1 1.0
velocity all create 1.0 12345
pair_style lj/cut 2.4675969757661234
pair_coeff 1 1 1.0 1.0
neighbor 0.32968228814210376 bin
neigh_modify delay 0 every 20 check no
fix 1 all nve
timestep 0.0003044384967803023
thermo 73
run 9905
