# units=lj,lattice=fcc,lattice_constant=0.8522850255245398,lattice_nx=20,lattice_ny=18,lattice_nz=6,ntypes=1,type=1,mass=1.0,temperature_target=1.0,temperature_seed=12345,force_type=lj/cut,force_cutoff=2.65204784457163,neighbor_skin=0.3440980178581532,comm_exchange_rate=20,dt=0.0005595565572764179,thermo_rate=46,nsteps=2509,nodes=4,tasks=16,testNum=67,

units lj
atom_style atomic
lattice fcc 0.8522850255245398
region box block 0 20 0 18 0 6
create_box 1 box
create_atoms 1 box
mass 1 1.0
velocity all create 1.0 12345
pair_style lj/cut 2.65204784457163
pair_coeff 1 1 1.0 1.0
neighbor 0.3440980178581532 bin
neigh_modify delay 0 every 20 check no
fix 1 all nve
timestep 0.0005595565572764179
thermo 46
run 2509
