# units=lj,lattice=fcc,lattice_constant=0.5757160962493217,lattice_nx=19,lattice_ny=4,lattice_nz=11,ntypes=1,type=1,mass=1.0,temperature_target=1.0,temperature_seed=12345,force_type=lj/cut,force_cutoff=2.745549553214225,neighbor_skin=0.1489374589398904,comm_exchange_rate=20,dt=0.0001905341562146376,thermo_rate=62,nsteps=4520,nodes=64,tasks=32,testNum=281,

units lj
atom_style atomic
lattice fcc 0.5757160962493217
region box block 0 19 0 4 0 11
create_box 1 box
create_atoms 1 box
mass 1 1.0
velocity all create 1.0 12345
pair_style lj/cut 2.745549553214225
pair_coeff 1 1 1.0 1.0
neighbor 0.1489374589398904 bin
neigh_modify delay 0 every 20 check no
fix 1 all nve
timestep 0.0001905341562146376
thermo 62
run 4520
