# units=lj,lattice=fcc,lattice_constant=0.757684511499854,lattice_nx=3,lattice_ny=6,lattice_nz=21,ntypes=1,type=1,mass=1.0,temperature_target=1.0,temperature_seed=12345,force_type=lj/cut,force_cutoff=2.0432799780474196,neighbor_skin=0.2767493725858744,comm_exchange_rate=20,dt=0.000783788647232972,thermo_rate=28,nsteps=9002,nodes=4,tasks=16,testNum=312,

units lj
atom_style atomic
lattice fcc 0.757684511499854
region box block 0 3 0 6 0 21
create_box 1 box
create_atoms 1 box
mass 1 1.0
velocity all create 1.0 12345
pair_style lj/cut 2.0432799780474196
pair_coeff 1 1 1.0 1.0
neighbor 0.2767493725858744 bin
neigh_modify delay 0 every 20 check no
fix 1 all nve
timestep 0.000783788647232972
thermo 28
run 9002
