# units=lj,lattice=fcc,lattice_constant=0.9435835784788448,lattice_nx=22,lattice_ny=5,lattice_nz=2,ntypes=1,type=1,mass=1.0,temperature_target=1.0,temperature_seed=12345,force_type=lj/cut,force_cutoff=2.92508197451981,neighbor_skin=0.33873482707329194,comm_exchange_rate=20,dt=0.0008052044478592003,thermo_rate=55,nsteps=1083,nodes=64,tasks=16,testNum=271,

units lj
atom_style atomic
lattice fcc 0.9435835784788448
region box block 0 22 0 5 0 2
create_box 1 box
create_atoms 1 box
mass 1 1.0
velocity all create 1.0 12345
pair_style lj/cut 2.92508197451981
pair_coeff 1 1 1.0 1.0
neighbor 0.33873482707329194 bin
neigh_modify delay 0 every 20 check no
fix 1 all nve
timestep 0.0008052044478592003
thermo 55
run 1083
