# units=lj,lattice=fcc,lattice_constant=0.7680443902051652,lattice_nx=22,lattice_ny=6,lattice_nz=3,ntypes=1,type=1,mass=1.0,temperature_target=1.0,temperature_seed=12345,force_type=lj/cut,force_cutoff=2.1463582635776435,neighbor_skin=0.3767136014866992,comm_exchange_rate=20,dt=0.00045485499949060105,thermo_rate=86,nsteps=2146,nodes=64,tasks=4,testNum=21,

units lj
atom_style atomic
lattice fcc 0.7680443902051652
region box block 0 22 0 6 0 3
create_box 1 box
create_atoms 1 box
mass 1 1.0
velocity all create 1.0 12345
pair_style lj/cut 2.1463582635776435
pair_coeff 1 1 1.0 1.0
neighbor 0.3767136014866992 bin
neigh_modify delay 0 every 20 check no
fix 1 all nve
timestep 0.00045485499949060105
thermo 86
run 2146
