# units=lj,lattice=fcc,lattice_constant=0.898373026491047,lattice_nx=24,lattice_ny=15,lattice_nz=18,ntypes=1,type=1,mass=1.0,temperature_target=1.0,temperature_seed=12345,force_type=lj/cut,force_cutoff=2.7120025565195465,neighbor_skin=0.3175861229079895,comm_exchange_rate=20,dt=0.000117266076939483,thermo_rate=88,nsteps=5188,nodes=32,tasks=32,testNum=220,

units lj
atom_style atomic
lattice fcc 0.898373026491047
region box block 0 24 0 15 0 18
create_box 1 box
create_atoms 1 box
mass 1 1.0
velocity all create 1.0 12345
pair_style lj/cut 2.7120025565195465
pair_coeff 1 1 1.0 1.0
neighbor 0.3175861229079895 bin
neigh_modify delay 0 every 20 check no
fix 1 all nve
timestep 0.000117266076939483
thermo 88
run 5188
