# units=lj,lattice=fcc,lattice_constant=0.8325068068119994,lattice_nx=13,lattice_ny=12,lattice_nz=6,ntypes=1,type=1,mass=1.0,temperature_target=1.0,temperature_seed=12345,force_type=lj/cut,force_cutoff=2.257177173199136,neighbor_skin=0.30912405832554507,comm_exchange_rate=20,dt=0.0002821091600480391,thermo_rate=35,nsteps=2223,nodes=4,tasks=1,testNum=116,

units lj
atom_style atomic
lattice fcc 0.8325068068119994
region box block 0 13 0 12 0 6
create_box 1 box
create_atoms 1 box
mass 1 1.0
velocity all create 1.0 12345
pair_style lj/cut 2.257177173199136
pair_coeff 1 1 1.0 1.0
neighbor 0.30912405832554507 bin
neigh_modify delay 0 every 20 check no
fix 1 all nve
timestep 0.0002821091600480391
thermo 35
run 2223
