# units=lj,lattice=fcc,lattice_constant=0.9831726807990375,lattice_nx=5,lattice_ny=4,lattice_nz=21,ntypes=1,type=1,mass=1.0,temperature_target=1.0,temperature_seed=12345,force_type=lj/cut,force_cutoff=2.615679717125361,neighbor_skin=0.44801413891132613,comm_exchange_rate=20,dt=0.00024081257965668845,thermo_rate=21,nsteps=242,nodes=8,tasks=8,testNum=208,

units lj
atom_style atomic
lattice fcc 0.9831726807990375
region box block 0 5 0 4 0 21
create_box 1 box
create_atoms 1 box
mass 1 1.0
velocity all create 1.0 12345
pair_style lj/cut 2.615679717125361
pair_coeff 1 1 1.0 1.0
neighbor 0.44801413891132613 bin
neigh_modify delay 0 every 20 check no
fix 1 all nve
timestep 0.00024081257965668845
thermo 21
run 242
